N = 11;
H = 6;
T = 2;

avail = array3d(1..N, 1..H, 1..T, [10, 2, 10, 6, 5, 0, 4, 4, 8, 3, 1, 0, 0, 6, 6, 9, 7, 8, 3, 10, 2, 2, 4, 9, 10, 8, 1, 4, 10, 0, 4, 3, 9, 7, 7, 10, 4, 8, 6, 7, 4, 10, 7, 9, 6, 4, 8, 1, 5, 2, 7, 8, 1, 1, 8, 7, 0, 0, 0, 8, 8, 1, 7, 4, 0, 0, 1, 0, 9, 6, 10, 4, 7, 8, 2, 9, 0, 0, 9, 0, 8, 9, 7, 1, 5, 0, 7, 4, 0, 6, 1, 4, 8, 0, 2, 1, 10, 7, 2, 10, 9, 7, 1, 9, 10, 1, 2, 4, 2, 1, 2, 1, 9, 5, 1, 0, 5, 10, 6, 5, 1, 9, 10, 4, 8, 0, 5, 7, 5, 1, 4, 7]);

r = array2d(1..H, 1..T, [2, 1, 4, 4, 2, 1, 5, 3, 5, 4, 3, 4]);
